2	25
783	504	253	773	40	856	425	550	98	98	619	299	312	235	146	866	714	609	367	552	178	900	758	913	83	
818	174	878	47	797	191	626	246	958	987	205	528	348	454	79	932	764	600	784	689	105	800	201	628	689	
1691	1691	
